COMMENT : 48 capitals of the US (Padberg/Rinaldi)
6734 2233 5530 401 3082 7608 7573 7265 6898 1112 5468 5989 4706 4612 6347 6107 7611 7462 7732 5900 4483 6101 5199 1633 4307 675 7555 7541 3177 7352 7545 3245 6426 4608 23 7248 7762 7392 3484 6271 4985 1916 7280 7509 10 6807 5185 3023
1453 10 1424 841 1644 4458 3716 1268 1885 2049 2606 2873 2674 2035 2683 669 5184 3590 4723 3561 3369 1110 2182 2809 2322 1006 4819 3981 756 4506 2801 3305 3173 1198 2216 3779 4595 2244 2829 2135 140 1569 4899 3239 2676 2993 3258 1942
131655 131655 130752 129255 129255 129154 126171 126171 115242 115242 115242 115242 115242 112151 112151 112151 112151 112151 112151 112151 112151 112151 112151 112151 112151 112151 112151 112151 112151 112151 112151 112151 112151 112151 112151 112151 112151 112151 112151 112151 112151 112151 112151 112151 112151 112151 112151 112151 112151 112151 112151 112151 112151 112151 112151 112151 112151 112151 112151 112151 112151 112151 112151 112151 112151 112151 112151 112151 112151 112151 112151 112151 112151 112151 112151 112151 112151 112151 112151 112151 112151 112151 112151 112151 112151 112151 112151 112151 112151 112151 112151 112151 112151 112151 112151 112151 112151 112151 112151 112151 112151 112151 112151 112151 112151 112151 112151 112151 112151 112151 112151 112151 112151 112151 112151 112151 112151 112151 112151 112151 112151 112151 112151 112151 112151 112151 112151 112151 112151 112151 112151 112151 112151 112151 112151 112151 112151 112151 112151 112151 112151 112151 112151 112151 112151 112151 112151 112151 112151 112151 112151 112151 112151 112151 112151 112151 112151 112151 112151 112151 112151 112151 112151 112151 112151 112151 112151 112151 112151 112151 112151 112151 112151 112151 112151 112151 112151 112151 112151 112151 112151 112151 112151 112151 112151 112151 112151 112151 112151 112151 112151 112151 112151 112151 112151 112151 112151 112151 112151 112151 112151 112151 112151 112151 112151 112151 112151 112151 112151 112151 112151 112151 112151 112151 112151 112151 112151 112151 112151 112151 112151 112151 112151 112151 112151 112151 112151 112151 112151 112151 112151 112151 112151 112151 112151 112151 112151 112151 112151 112151 112151 112151 112151 112151 112151 112151 112151 112151 112151 112151 112151 112151 112151 112151 112151 112151 112151 112151 112151 112151 112151 112151 112151 112151 112151 112151 112151 112151 112151 112151 112151 112151 112151 112151 112151 112151 112151 112151 111788 111788 111788 111788 111788 111788 111788 111788 111788 111788 111788 111788 111788 111788 111788 111788 111788 111788 111788 111788 111788 111788 111788 111788 111788 111788 111788 111788 111788 111788 111788 111788 111788 111788 111788 111788 111788 111788 111788 111788 111788 111788 111788 111788 111788 111788 111788 111788 111788 111788 111788 111788 111788 111788 111788 111788 111788 111788 111788 111788 111788 111788 111788 111788 111788 111788 111788 111788 111788 111788 111788 111788 111788 111788 111788 111788 111788 111788 111788 111788 111788 111788 111788 111788 111788 111788 111788 111788 111788 111788 111788 111788 111788 111788 111788 111788 111788 111788 111788 111788 111788 111788 111788 109364 109364 109364 109364 109364 109364 109364 109364 109364 109364 109364 109364 109364 109364 109364 109364 109364 109364 109364 109364 109364 109364 109364 109364 109364 109364 109364 109364 109364 109364 109364 109364 109364 109364 109364 109364 109364 109364 109364 109364 109364 109364 109364 109364 109364 109364 109364 109364 109364 109364 109364 109364 109364 109364 109364 109364 109364 109364 109364 109364 109364 109364 109364 109364 109364 109364 109364 109364 109364 109364 109364 109364 109364 109364 109364 109364 109364 109364 109364 109364 109364 109364 109364 109364 109364 109364 109364 109364 109364 109364 109364 109364 109364 109364 109364 109364 109364 109364 109364 109364 109364 109364 109364 109364 109364 109364 109364 109364 109364 109364 109364 109364 109364 109364 109364 109364 109364 109364 109364 109364 109364 109364 109364 109364 109364 109364 109364 109364 109364 109364 109364 109364 109364 109364 109364 109364 109364 109364 102271 102271 102271 102271 102271 102271 102271 102271 102271 102271 102271 102271 102271 102271 102271 102271 102271 102271 102271 102271 102271 102271 102271 102271 102271 102271 102271 102271 102271 102271 102271 102271 102271 102271 102271 102271 102271 102271 102271 102271 102271 102271 102271 102271 102271 102271 102271 102271 102271 102271 102271 102271 102271 102271 102271 102271 102271 102271 102271 102271 102271 102271 102271 102271 102271 102271 102271 102271 102271 102271 102271 102271 102271 102271 102271 102271 102271 102271 102271 102271 102271 102271 102271 102271 102271 102271 102271 102271 102271 102271 102271 102271 102271 102271 102271 102271 102271 102271 102271 102271 102271 102271 102271 102271 102271 102271 102271 102271 102271 102271 102271 102271 102271 102271 102271 102271 102271 102271 102271 102271 102271 102271 102271 102271 102271 102271 102271 102271 102271 102271 102271 102271 102271 102271 102271 102271 102271 102271 102271 102271 102271 102271 102271 102271 102271 102271 102271 102271 102271 102271 102271 102271 102271 102271 102271 102271 102271 102271 102271 102271 102271 102271 102271 102271 102271 102271 102271 102271 102271 102271 102271 102271 102271 102271 102271 102271 102271 102271 102271 102271 102271 102271 102271 102271 102271 102271 102271 102271 102271 102271 102271 102271 102271 102271 102271 102271 102271 102271 102271 102271 102271 102271 102271 102271 102271 102271 102271 102271 102271 102271 102271 102271 102271 102271 102271 102271 102271 102271 102271 102271 102271 102271 102271 102271 102271 102271 102271 102271 102271 102271 102271 102271 102271 102271 102271 102271 102271 102271 102271 102271 102271 102271 102271 102271 102271 102271 102271 102271 102271 102271 102271 102271 102271 102271 102271 102271 102271 102271 102271 102271 102271 102271 102271 102271 102271 102271 102271 102271 102271 102271 102271 102271 102271 102271 102271 102271 102271 102271 102271 102271 102271 102271 102271 102271 102271 102271 102271 102271 102271 102271 102271 102271 102271 102271 102271 102271 102271 102271 102271 102271 102271 102271 102271 102271 102271 102271 102271 102271 102271 102271 102271 102271 102271 102271 102271 102271 102271 102271 102271 102271 102271 102271 102271 102271 102271 102271 102271 102271 102271 102271 102271 102271 102271 102271 102271 102271 102271 102271 102271 102271 102271 102271 102271 102271 102271 102271 102271 102271 102271 102271 102271 102271 102271 102271 102271 102271 102271 102271 102271 102271 102271 102271 102271 102271 102271 102271 102271 102271 102271 102271 102271 102271 102271 102271 102271 102271 102271 102271 102271 102271 102271 102271 102271 102271 102271 102271 102271 102271 102271 102271 102271 102271 102271 102271 102271 102271 102271 102271 102271 102271 102271 102271 102271 102271 102271 102271 102271 102271 102271 102271 102271 102271 102271 102271 102271 102271 102271 102271 102271 102271 102271 102271 102271 102271 102271 102271 102271 102271 102271 102271 102271 102271 102271 102271 102271 102271 102271 102271 102271 102271 102271 102271 102271 102271 102271 102271 102271 102271 102271 102271 102271 102271 102271 102271 102271 102271 102271 102271 102271 102271 102271 102271 102271 102271 102271 102271 102271 102271 102271 102271 102271 102271 102271 102271 102271 102271 102271 102271 102271 102271 102271 102271 102271 102271 102271 102271 102271 102271 102271 102271 102271 102271 102271 102271 102271 102271 102271 102271 102271 102271 102271 102271 102271 102271 102271 102271 102271 102271 102271 102271 102271 102271 102271 102271 102271 102271 102271 102271 102271 102271 102271 102271 102271 102271 102271 102271 102271 102271 102271 102271 102271 102271 102271 102271 102271 102271 102271 102271 102271 102271 102271 102271 102271 102271 102271 102271 102271 102271 102271 102271 102271 102271 102271 102271 102271 102271 102271 102271 102271 102271 102271 102271 102271 102271 102271 102271 102271 102271 102271 102271 102271 102271 102271 102271 102271 102271 102271 102271 102271 102271 102271 102271 102271 102271 102271 102271 102271 102271 102271 102271 102271 102271 102271 102271 102271 102271 102271 102271 102271 102271 102271 102271 102271 102271 102271 102271 102271 102271 102271 102271 102271 102271 102271 102271 102271 102271 102271 102271 102271 102271 102271 102271 102271 102271 102271 102271 102271 102271 102271 102271 102271 102271 102271 102271 102271 102271 102271 102271 102271 102271 102271 102271 102271 102271 102271 102271 102271 102271 102271 102271 102271 102271 102271 102271 102271 102271 102271 102271 102271 102271 102271 102271 102271 102271 102271 102271 102271 102271 102271 102271 102271 102271 102271 102271 102271 102271 102271 102271 102271 102271 102271 102271 102271 102271 102271 102271 102271 102271 102271 102271 102271 102271 102271 102271 102271 102271 102271 102271 102271 102271 102271 102271 102271 102271 102271 102271 102271 102271 102271 102271 102271 102271 102271 102271 102271 102271 102271 102271 102271 102271 102271 102271 102271 102271 102271 102271 102271 102271 102271 102271 102271 102271 102271 102271 102271 102271 102271 102271 102271 102271 102271 102271 102271 102271 102271 102271 102271 102271 102271 102271 102271 102271 102271 102271 102271 102271 102271 102271 102271 102271 102271 102271 102271 102271 102271 102271 102271 102271 102271 102271 102271 102271 102271 102271 102271 102271 102271 102271 102271 102271 102271 102271 102271 102271 102271 102271 102271 102271 102271 102271 102271 102271 102271 102271 102271 102271 102271 102271 102271 102271 102271 102271 102271 102271 102271 102271 102271 102271 102271 102271 102271 102271 102271 102271 102271 102271 102271 102271 102271 102271 102271 102271 102271 102271 102271 102271 102271 102271 102271 102271 102271 102271 102271 102271 102271 102271 102271 102271 102271 102271 102271 102271 102271 102271 102271 102271 102271 102271 102271 102271 102271 102271 102271 102271 102271 102271 102271 102271 102271 102271 102271 102271 102271 102271 102271 102271 102271 102271 102271 102271 102271 102271 102271 102271 102271 102271 102271 102271 102271 102271 102271 102271 102271 102271 102271 102271 102271 102271 102271 102271 102271 102271 102271 102271 102271 102271 102271 102271 102271 102271 102271 102271 102271 102271 102271 102271 102271 102271 102271 102271 102271 102271 102271 102271 102271 102271 102271 102271 102271 102271 102271 102271 102271 102271 102271 102271 102271 102271 102271 102271 102271 102271 102271 102271 102271 102271 102271 102271 102271 102271 102271 102271 102271 102271 102271 102271 102271 102271 102271 102271 102271 102271 102271 102271 102271 102271 102271 102271 102271 102271 102271 102271 102271 102271 102271 102271 102271 102271 102271 102271 102271 102271 102271 102271 102271 102271 102271 102271 102271 102271 102271 102271 102271 102271 102271 102271 102271 102271 102271 102271 102271 102271 102271 102271 102271 102271 102271 102271 102271 102271 102271 102271 102271 102271 102271 102271 102271 102271 102271 102271 102271 102271 102271 102271 102271 102271 102271 102271 102271 102271 102271 102271 102271 102271 102271 102271 102271 102271 102271 102271 102271 102271 102271 102271 102271 102271 102271 102271 102271 102271 102271 102271 102271 102271 102271 102271 102271 102271 102271 102271 102271 102271 102271 102271 102271 102271 102271 102271 102271 102271 102271 102271 102271 102271 102271 102271 102271 102271 102271 102271 102271 102271 102271 102271 102271 102271 102271 102271 102271 102271 102271 102271 102271 102271 102271 102271 102271 102271 102271 102271 102271 102271 102271 102271 102271 102271 102271 102271 102271 102271 102271 102271 102271 102271 102271 102271 102271 102271 102271 102271 102271 102271 102271 102271 102271 102271 102271 102271 102271 102271 102271 102271 102271 102271 102271 102271 102271 102271 102271 102271 102271 102271 102271 102271 102271 102271 102271 102271 102271 102271 102271 102271 102271 102271 102271 102271 102271 102271 102271 102271 102271 102271 102271 102271 102271 102271 102271 102271 102271 102271 102271 102271 102271 102271 102271 102271 102271 102271 102271 102271 102271 102271 102271 102271 102271 102271 102271 102271 102271 102271 102271 102271 102271 102271 102271 102271 102271 102271 102271 102271 102271 102271 102271 102271 102271 102271 102271 102271 102271 102271 102271 102271 102271 102271 102271 102271 102271 102271 102271 102271 102271 102271 102271 102271 102271 102271 102271 102271 102271 102271 102271 102271 102271 102271 102271 102271 102271 102271 102271 102271 102271 102271 102271 102271 102271 102271 102271 102271 102271 102271 102271 102271 102271 102271 102271 102271 102271 102271 102271 102271 102271 102271 102271 102271 102271 102271 102271 102271 102271 102271 102271 102271 102271 102271 102271 102271 102271 102271 102271 102271 102271 102271 102271 102271 102271 102271 102271 102271 102271 102271 102271 102271 102271 102271 102271 102271 102271 102271 102271 102271 102271 102271 102271 102271 102271 102271 102271 102271 102271 102271 102271 102271 102271 102271 102271 102271 102271 102271 102271 102271 102271 102271 102271 102271 102271 102271 102271 102271 102271 102271 102271 102271 102271 102271 102271 102271 102271 102271 102271 102271 102271 102271 102271 102271 102271 102271 102271 102271 102271 102271 102271 102271 102271 102271 102271 102271 102271 102271 102271 102271 102271 102271 102271 102271 102271 102271 102271 102271 102271 102271 102271 102271 102271 102271 102271 102271 102271 102271 102271 102271 102271 102271 102271 102271 102271 102271 102271 102271 102271 102271 102271 102271 102271 102271 102271 102271 102271 102271 102271 102271 102271 102271 102271 102271 102271 102271 102271 102271 102271 102271 102271 102271 102271 102271 102271 102271 102271 102271 102271 102271 102271 102271 102271 102271 102271 102271 102271 102271 102271 102271 102271 102271 102271 102271 102271 102271 102271 102271 102271 102271 102271 102271 102271 102271 102271 102271 102271 102271 102271 102271 102271 102271 102271 102271 102271 102271 102271 102271 102271 102271 102271 102271 102271 102271 102271 102271 102271 102271 102271 102271 102271 102271 102271 102271 102271 102271 102271 102271 102271 102271 102271 102271 102271 102271 102271 102271 102271 102271 102271 102271 102271
8 40 22 23 41 3 34 21 33 18 25 29 19 17 36 46 7 1 24 45 32 11 4 39 38 31 30 43 14 16 9 12 20 13 44 15 47 10 26 48 2 35 42 5 27 6 28 37
1 8 38 31 44 18 7 28 6 37 19 27 17 43 30 36 46 33 20 47 21 32 39 48 5 42 24 10 45 35 4 26 2 29 34 41 16 22 3 23 14 25 13 11 12 15 40 9
